MgO-Born effective charge
4.212
.0 .5 .5
.5 .0 .5
.5 .5 .0
Mg O
1 1
D
.0 .0 .0 Mg
.5 .5 .5 O

