Supercell by Yi Wang
1.00
         0.0000000000         4.2120000000         4.2120000000
         4.2120000000         0.0000000000         4.2120000000
         4.2120000000         4.2120000000         0.0000000000
 Mg O
 8 8
D
   0.0000000000    0.0000000000    0.0000000000 Mg
   0.0000000000    0.0000000000    0.5000000000 Mg
   0.0000000000    0.5000000000    0.0000000000 Mg
   0.0000000000    0.5000000000    0.5000000000 Mg
   0.5000000000    0.0000000000    0.0000000000 Mg
   0.5000000000    0.0000000000    0.5000000000 Mg
   0.5000000000    0.5000000000    0.0000000000 Mg
   0.5000000000    0.5000000000    0.5000000000 Mg
   0.2500000000    0.2500000000    0.2500000000 O
   0.2500000000    0.2500000000    0.7500000000 O
   0.2500000000    0.7500000000    0.2500000000 O
   0.2500000000    0.7500000000    0.7500000000 O
   0.7500000000    0.2500000000    0.2500000000 O
   0.7500000000    0.2500000000    0.7500000000 O
   0.7500000000    0.7500000000    0.2500000000 O
   0.7500000000    0.7500000000    0.7500000000 O
