Supercell by Yi Wang                    
    1.000000000000000     
     3.1881800000000000   -5.5220800000000000    0.0000000000000000
    -6.3763400000000000    0.0000000000000000    0.0000000000000000
     0.0000000000000000    0.0000000000000000  -10.3728200000000000
   Mg
    16
Direct
  0.0000000000000000  0.0000000000000000  0.0014460869850243
  0.0000000000000000  0.0000000000000000  0.5000000000000000
  0.0000000000000000  0.5000000000000000  0.0000000000000000
  0.0000000000000000  0.5000000000000000  0.5000000000000000
  0.5000000000000000  0.0000000000000000  0.0000000000000000
  0.5000000000000000  0.0000000000000000  0.5000000000000000
  0.5000000000000000  0.5000000000000000  0.0000000000000000
  0.5000000000000000  0.5000000000000000  0.5000000000000000
  0.3333333349999990  0.1666666650000010  0.2500000000000000
  0.3333333349999990  0.1666666650000010  0.7500000000000000
  0.3333333349999990  0.6666666650000010  0.2500000000000000
  0.3333333349999990  0.6666666650000010  0.7500000000000000
  0.8333333349999990  0.1666666650000010  0.2500000000000000
  0.8333333349999990  0.1666666650000010  0.7500000000000000
  0.8333333349999990  0.6666666650000010  0.2500000000000000
  0.8333333349999990  0.6666666650000010  0.7500000000000000

  0.00000000E+00  0.00000000E+00  0.00000000E+00
  0.00000000E+00  0.00000000E+00  0.00000000E+00
  0.00000000E+00  0.00000000E+00  0.00000000E+00
  0.00000000E+00  0.00000000E+00  0.00000000E+00
  0.00000000E+00  0.00000000E+00  0.00000000E+00
  0.00000000E+00  0.00000000E+00  0.00000000E+00
  0.00000000E+00  0.00000000E+00  0.00000000E+00
  0.00000000E+00  0.00000000E+00  0.00000000E+00
  0.00000000E+00  0.00000000E+00  0.00000000E+00
  0.00000000E+00  0.00000000E+00  0.00000000E+00
  0.00000000E+00  0.00000000E+00  0.00000000E+00
  0.00000000E+00  0.00000000E+00  0.00000000E+00
  0.00000000E+00  0.00000000E+00  0.00000000E+00
  0.00000000E+00  0.00000000E+00  0.00000000E+00
  0.00000000E+00  0.00000000E+00  0.00000000E+00
  0.00000000E+00  0.00000000E+00  0.00000000E+00
