Supercell by Yi Wang
1.00
         3.1881800000        -5.5220800000         0.0000000000
        -6.3763400000         0.0000000000         0.0000000000
         0.0000000000         0.0000000000       -10.3728200000
 Mg
 16
D
   0.0000000000    0.0000000000    0.0000000000 Mg
   0.0000000000    0.0000000000    0.5000000000 Mg
   0.0000000000    0.5000000000    0.0000000000 Mg
   0.0000000000    0.5000000000    0.5000000000 Mg
   0.5000000000    0.0000000000    0.0000000000 Mg
   0.5000000000    0.0000000000    0.5000000000 Mg
   0.5000000000    0.5000000000    0.0000000000 Mg
   0.5000000000    0.5000000000    0.5000000000 Mg
   0.3333333350    0.1666666650    0.2500000000 Mg
   0.3333333350    0.1666666650    0.7500000000 Mg
   0.3333333350    0.6666666650    0.2500000000 Mg
   0.3333333350    0.6666666650    0.7500000000 Mg
   0.8333333350    0.1666666650    0.2500000000 Mg
   0.8333333350    0.1666666650    0.7500000000 Mg
   0.8333333350    0.6666666650    0.2500000000 Mg
   0.8333333350    0.6666666650    0.7500000000 Mg
