Mg HCP
 1.00
    1.594090000000     -2.761040000000      0.000000000000
   -3.188170000000      0.000000000000      0.000000000000
    0.000000000000      0.000000000000     -5.186410000000
   Mg
    2
D
 0 0 0
 0.66666667 0.33333333 0.5

